NAME : lr206.931628.tour
COMMENT : Cost = 0_931628
COMMENT : Found by LKH [Keld Helsgaun] Fri Sep 15 17:42:01 2017
TYPE : TOUR
DIMENSION : 103
TOUR_SECTION
1
28
70
2
51
77
27
40
68
24
42
23
73
74
22
41
54
7
97
100
96
98
88
44
58
3
75
76
57
5
26
56
55
25
81
69
78
102
83
49
48
37
46
6
60
93
43
16
15
45
39
87
17
62
85
19
8
89
20
50
47
9
84
61
18
86
92
101
38
99
94
95
14
59
103
29
13
30
4
34
72
66
64
65
12
63
91
31
52
10
82
80
79
35
36
67
21
33
11
71
32
53
90
-1
EOF
